30
0 1 0.6 0.43
0 2 0.8 0.41
0 3 0.76 0.32
0 4 0.48 0.31
0 5 0.67 0.19
0 6 0.57 0.22
0 7 0.56 0.48
0 8 0.54 0.43
0 9 0.58 0.3
0 10 0.72 0.49
0 11 0.52 0.31
0 12 0.5 0.32
0 13 0.61 0.4
0 14 0.82 0.27
0 15 0.36 0.28
0 16 0.71 0.31
0 17 0.74 0.26
0 18 0.6 0.35
0 19 0.7 0.44
0 20 0.51 0.35
0 21 0.76 0.38
0 22 0.44 0.28
0 23 0.46 0.38
0 24 0.62 0.35
0 25 0.48 0.27
0 26 0.66 0.33
0 27 0.38 0.31
0 28 0.64 0.43
0 29 0.55 0.37
1 2 0.7 0.33
1 3 0.78 0.32
1 4 0.64 0.28
1 5 0.37 0.25
1 6 0.65 0.36
1 7 0.68 0.33
1 8 0.38 0.26
1 9 0.42 0.22
1 10 0.64 0.06
1 11 0.72 0.24
1 12 0.65 0.2
1 13 0.54 0.22
1 14 0.72 0.25
1 15 0.61 0.32
1 16 0.44 0.21
1 17 0.3 0.18
1 18 0.54 0.28
1 19 0.37 0.28
1 20 0.58 0.31
1 21 0.59 0.37
1 22 0.51 0.36
1 23 0.45 0.34
1 24 0.36 0.29
1 25 0.38 0.16
1 26 0.62 0.24
1 27 0.46 0.28
1 28 0.44 0.16
1 29 0.28 0.15
2 3 0.62 0.31
2 4 0.83 0.31
2 5 0.47 0.22
2 6 0.52 0.4
2 7 0.38 0.29
2 8 0.5 0.33
2 9 0.47 0.33
2 10 0.56 0.27
2 11 0.72 0.34
2 12 0.75 0.26
2 13 0.53 0.32
2 14 0.68 0.14
2 15 0.62 0.3
2 16 0.72 0.18
2 17 0.4 0.29
2 18 0.8 0.41
2 19 0.49 0.23
2 20 0.75 0.35
2 21 0.71 0.35
2 22 0.58 0.42
2 23 0.56 0.44
2 24 0.67 0.35
2 25 0.62 0.3
2 26 0.68 0.34
2 27 0.71 0.31
2 28 0.34 0.3
2 29 0.56 0.24
3 4 0.53 0.18
3 5 0.71 0.25
3 6 0.37 0.18
3 7 0.82 0.24
3 8 0.72 0.28
3 9 0.6 0.13
3 10 0.72 0.37
3 11 0.73 0.28
3 12 0.64 0.23
3 13 0.54 0.1
3 14 0.51 0.17
3 15 0.4 0.04
3 16 0.34 0.13
3 17 0.64 0.24
3 18 0.75 0.22
3 19 0.56 0.3
3 20 0.74 0.22
3 21 0.62 0.18
3 22 0.7 0.24
3 23 0.7 0.22
3 24 0.6 0.14
3 25 0.54 0.2
3 26 0.73 0.1
3 27 0.56 0.18
3 28 0.52 0.25
3 29 0.5 0.19
4 5 0.58 0.14
4 6 0.72 0.09
4 7 0.75 0.27
4 8 0.5 0.3
4 9 0.82 0.23
4 10 0.89 0.31
4 11 0.66 0.26
4 12 0.7 0.08
4 13 0.84 0.22
4 14 0.73 0.22
4 15 0.6 0.22
4 16 0.52 0.2
4 17 0.65 0.1
4 18 0.5 0.24
4 19 0.38 0.14
4 20 0.64 0.04
4 21 0.6 0.19
4 22 0.56 0.15
4 23 0.74 0.25
4 24 0.44 0.04
4 25 0.64 0.19
4 26 0.62 0.22
4 27 0.6 0.0
4 28 0.8 0.32
4 29 0.36 0.14
5 6 0.48 0.23
5 7 0.55 0.38
5 8 0.4 0.27
5 9 0.58 0.3
5 10 0.59 0.31
5 11 0.49 0.12
5 12 0.28 0.22
5 13 0.62 0.26
5 14 0.61 0.08
5 15 0.67 0.24
5 16 0.56 0.12
5 17 0.07 0.07
5 18 0.71 0.32
5 19 0.5 0.25
5 20 0.55 0.18
5 21 0.28 0.2
5 22 0.6 0.29
5 23 0.43 0.36
5 24 0.65 0.18
5 25 0.68 0.2
5 26 0.39 0.27
5 27 0.29 0.14
5 28 0.48 0.24
5 29 0.61 0.18
6 7 0.45 0.3
6 8 0.83 0.26
6 9 0.46 0.14
6 10 0.58 0.4
6 11 0.71 0.28
6 12 0.52 0.17
6 13 0.46 0.18
6 14 0.59 0.3
6 15 0.5 0.14
6 16 0.46 0.26
6 17 0.55 0.19
6 18 0.54 0.3
6 19 0.66 0.23
6 20 0.45 0.13
6 21 0.46 0.24
6 22 0.33 0.06
6 23 0.62 0.16
6 24 0.62 0.13
6 25 0.54 0.26
6 26 0.7 0.17
6 27 0.19 0.09
6 28 0.64 0.38
6 29 0.58 0.23
7 8 0.74 0.32
7 9 0.68 0.37
7 10 0.58 0.32
7 11 0.62 0.37
7 12 0.56 0.35
7 13 0.82 0.34
7 14 0.5 0.31
7 15 0.72 0.2
7 16 0.72 0.27
7 17 0.48 0.31
7 18 0.51 0.22
7 19 0.62 0.13
7 20 0.64 0.31
7 21 0.4 0.21
7 22 0.72 0.36
7 23 0.54 0.44
7 24 0.46 0.31
7 25 0.64 0.34
7 26 0.65 0.34
7 27 0.64 0.27
7 28 0.54 0.26
7 29 0.71 0.33
8 9 0.78 0.4
8 10 0.82 0.32
8 11 0.6 0.39
8 12 0.5 0.31
8 13 0.63 0.21
8 14 0.58 0.19
8 15 0.58 0.25
8 16 0.78 0.15
8 17 0.47 0.31
8 18 0.7 0.33
8 19 0.47 0.23
8 20 0.73 0.34
8 21 0.46 0.11
8 22 0.5 0.2
8 23 0.78 0.33
8 24 0.59 0.34
8 25 0.76 0.35
8 26 0.79 0.38
8 27 0.66 0.3
8 28 0.42 0.18
8 29 0.66 0.21
9 10 0.55 0.28
9 11 0.33 0.22
9 12 0.34 0.28
9 13 0.58 0.22
9 14 0.58 0.23
9 15 0.73 0.17
9 16 0.3 0.25
9 17 0.58 0.23
9 18 0.46 0.19
9 19 0.72 0.37
9 20 0.62 0.25
9 21 0.6 0.31
9 22 0.28 0.2
9 23 0.49 0.16
9 24 0.78 0.26
9 25 0.8 0.3
9 26 0.76 0.03
9 27 0.65 0.23
9 28 0.66 0.37
9 29 0.46 0.3
10 11 0.4 0.26
10 12 0.5 0.26
10 13 0.75 0.28
10 14 0.7 0.3
10 15 0.42 0.38
10 16 0.7 0.26
10 17 0.52 0.24
10 18 0.6 0.34
10 19 0.51 0.34
10 20 0.65 0.35
10 21 0.38 0.32
10 22 0.55 0.42
10 23 0.66 0.4
10 24 0.68 0.35
10 25 0.7 0.22
10 26 0.48 0.27
10 27 0.39 0.31
10 28 0.7 0.16
10 29 0.72 0.21
11 12 0.4 0.22
11 13 0.6 0.26
11 14 0.72 0.2
11 15 0.6 0.24
11 16 0.63 0.24
11 17 0.42 0.19
11 18 0.78 0.2
11 19 0.74 0.24
11 20 0.64 0.23
11 21 0.72 0.32
11 22 0.4 0.22
11 23 0.73 0.38
11 24 0.46 0.3
11 25 0.72 0.08
11 26 0.5 0.25
11 27 0.52 0.26
11 28 0.7 0.26
11 29 0.7 0.3
12 13 0.66 0.27
12 14 0.7 0.3
12 15 0.5 0.27
12 16 0.49 0.28
12 17 0.35 0.18
12 18 0.58 0.16
12 19 0.55 0.22
12 20 0.44 0.12
12 21 0.34 0.2
12 22 0.59 0.23
12 23 0.71 0.33
12 24 0.75 0.09
12 25 0.64 0.27
12 26 0.56 0.3
12 27 0.33 0.08
12 28 0.52 0.36
12 29 0.42 0.22
13 14 0.4 0.18
13 15 0.68 0.14
13 16 0.42 0.22
13 17 0.69 0.32
13 18 0.48 0.12
13 19 0.54 0.36
13 20 0.44 0.26
13 21 0.74 0.28
13 22 0.77 0.24
13 23 0.44 0.12
13 24 0.83 0.18
13 25 0.64 0.2
13 26 0.62 0.2
13 27 0.6 0.22
13 28 0.6 0.34
13 29 0.5 0.28
14 15 0.73 0.16
14 16 0.28 0.04
14 17 0.54 0.15
14 18 0.56 0.27
14 19 0.74 0.28
14 20 0.48 0.26
14 21 0.6 0.28
14 22 0.72 0.36
14 23 0.66 0.3
14 24 0.77 0.25
14 25 0.68 0.28
14 26 0.22 0.2
14 27 0.74 0.22
14 28 0.64 0.16
14 29 0.44 0.1
15 16 0.45 0.12
15 17 0.64 0.2
15 18 0.62 0.26
15 19 0.64 0.26
15 20 0.54 0.26
15 21 0.62 0.14
15 22 0.8 0.2
15 23 0.72 0.26
15 24 0.26 0.18
15 25 0.34 0.16
15 26 0.62 0.14
15 27 0.6 0.22
15 28 0.48 0.24
15 29 0.38 0.18
16 17 0.58 0.19
16 18 0.5 0.23
16 19 0.54 0.24
16 20 0.76 0.24
16 21 0.32 0.26
16 22 0.45 0.32
16 23 0.52 0.34
16 24 0.49 0.24
16 25 0.58 0.28
16 26 0.5 0.23
16 27 0.61 0.2
16 28 0.62 0.12
16 29 0.16 0.06
17 18 0.68 0.34
17 19 0.48 0.18
17 20 0.62 0.14
17 21 0.35 0.2
17 22 0.67 0.25
17 23 0.36 0.34
17 24 0.58 0.14
17 25 0.65 0.27
17 26 0.32 0.2
17 27 0.36 0.1
17 28 0.55 0.31
17 29 0.54 0.24
18 19 0.54 0.34
18 20 0.65 0.27
18 21 0.6 0.36
18 22 0.52 0.26
18 23 0.7 0.24
18 24 0.88 0.25
18 25 0.45 0.12
18 26 0.36 0.16
18 27 0.56 0.24
18 28 0.46 0.3
18 29 0.6 0.17
19 20 0.26 0.18
19 21 0.22 0.12
19 22 0.48 0.29
19 23 0.46 0.31
19 24 0.68 0.18
19 25 0.3 0.22
19 26 0.67 0.36
19 27 0.49 0.14
19 28 0.51 0.18
19 29 0.65 0.28
20 21 0.48 0.23
20 22 0.56 0.19
20 23 0.72 0.29
20 24 0.69 0.08
20 25 0.2 0.15
20 26 0.52 0.22
20 27 0.26 0.04
20 28 0.69 0.33
20 29 0.71 0.18
21 22 0.32 0.18
21 23 0.41 0.37
21 24 0.81 0.23
21 25 0.52 0.3
21 26 0.45 0.28
21 27 0.57 0.19
21 28 0.64 0.29
21 29 0.48 0.32
22 23 0.33 0.22
22 24 0.54 0.19
22 25 0.76 0.2
22 26 0.5 0.23
22 27 0.52 0.15
22 28 0.68 0.38
22 29 0.61 0.29
23 24 0.5 0.29
23 25 0.56 0.32
23 26 0.44 0.19
23 27 0.72 0.25
23 28 0.51 0.41
23 29 0.68 0.31
24 25 0.6 0.23
24 26 0.72 0.23
24 27 0.43 0.04
24 28 0.74 0.36
24 29 0.33 0.18
25 26 0.72 0.28
25 27 0.39 0.19
25 28 0.49 0.18
25 29 0.62 0.29
26 27 0.58 0.22
26 28 0.51 0.35
26 29 0.6 0.29
27 28 0.77 0.32
27 29 0.45 0.14
28 29 0.46 0.18
